************************************************************************
file with basedata            : md370_.bas
initial value random generator: 1531318862
************************************************************************
projects                      :  1
jobs (incl. supersource/sink ):  22
horizon                       :  161
RESOURCES
  - renewable                 :  2   R
  - nonrenewable              :  2   N
  - doubly constrained        :  0   D
************************************************************************
PROJECT INFORMATION:
pronr.  #jobs rel.date duedate tardcost  MPM-Time
    1     20      0       16        2       16
************************************************************************
PRECEDENCE RELATIONS:
jobnr.    #modes  #successors   successors
   1        1          3           2   3   4
   2        3          3           5   6  16
   3        3          2           9  10
   4        3          3           5  12  15
   5        3          3          17  18  20
   6        3          3           7   8  10
   7        3          2          11  18
   8        3          3          14  17  21
   9        3          1          13
  10        3          2          13  14
  11        3          2          12  14
  12        3          3          17  20  21
  13        3          2          15  20
  14        3          1          19
  15        3          1          18
  16        3          1          19
  17        3          1          19
  18        3          1          21
  19        3          1          22
  20        3          1          22
  21        3          1          22
  22        1          0        
************************************************************************
REQUESTS/DURATIONS:
jobnr. mode duration  R 1  R 2  N 1  N 2
------------------------------------------------------------------------
  1      1     0       0    0    0    0
  2      1     2       7    0    9   10
         2     7       0    7    8    6
         3     8       0    7    8    3
  3      1     2       0    4    6   10
         2     8       8    0    5    9
         3    10       7    0    5    8
  4      1     1       3    0    8    5
         2     3       2    0    6    2
         3     8       2    0    5    1
  5      1     1       0    6    6    3
         2     4       0    5    2    2
         3     4       8    0    5    2
  6      1     1       7    0    6    9
         2     3       4    0    6    7
         3     9       4    0    6    6
  7      1     2       0    6    6    3
         2     2       4    0    5    3
         3     8       0    4    5    2
  8      1     2       8    0    5    8
         2     6       6    0    3    5
         3     8       5    0    2    1
  9      1     6       3    0    8    2
         2     7       0    7    8    2
         3     9       0    7    8    1
 10      1     2       0    5    9    3
         2     2       0    7    7    4
         3     6       0    3    5    2
 11      1     5       6    0    6    7
         2     6       0    4    5    6
         3    10       0    3    5    6
 12      1     1       0    7    8    8
         2     4       7    0    4    8
         3    10       3    0    1    7
 13      1     2       5    0    9    7
         2     8       0    4    8    7
         3     9       2    0    7    7
 14      1     2       8    0    9    5
         2     3       7    0    9    3
         3     7       0    9    7    3
 15      1     1       0    4    5    5
         2     2       0    4    5    4
         3     9       0    4    5    1
 16      1     2       4    0    4    7
         2     2       0    5    4    6
         3     5       0    1    3    4
 17      1     4       0    5    5    3
         2     7       7    0    5    2
         3    10       0    4    4    1
 18      1     1       0    7    1    7
         2     4       0    5    1    6
         3    10       6    0    1    5
 19      1     1       0   10    8    7
         2     2       5    0    6    6
         3    10       0    8    5    4
 20      1     1       0    4    9    7
         2     2       7    0    7    6
         3     3       7    0    7    4
 21      1     3       0    8    6    6
         2     4       0    7    5    6
         3     8       0    7    3    2
 22      1     0       0    0    0    0
************************************************************************
RESOURCEAVAILABILITIES:
  R 1  R 2  N 1  N 2
   19   16  123  110
************************************************************************
MAXIMAL LAGS:
from  to  type  delay
    1   12   ES      0
    1    2   ES      0
    2   12   ES      0
    1    3   ES      0
    3   12   ES      0
    1    4   ES      0
    4   12   ES      0
    1    5   ES      0
    5   12   ES      0
    1    6   ES      0
    6   12   ES      0
    1    7   ES      0
    7   12   ES      0
    1    8   ES      0
    8   12   ES      0
    1    9   ES      0
    9   12   ES      0
    1   10   ES      0
   10   12   ES      0
    1   11   ES      0
   11   12   ES      0
    1   12   ES      0
    2    5   SS     10
    2    5   SE      6
    2    5   ES    -11
    2    5   EE      1
    2    6   SS     10
    2    6   SE      3
    2    6   ES      2
    2    6   EE     -9
    2   16   SS      5
    2   16   SE     -2
    2   16   ES     -6
    2   16   EE     10
    3    9   SS      0
    3    9   SE    -12
    3    9   ES     12
    3    9   EE      8
    3   10   SS     -9
    3   10   SE      3
    3   10   ES     -3
    3   10   EE     -5
    4    5   SS     10
    4    5   SE    -12
    4    5   ES     -4
    4    5   EE    -11
    4   15   SS     -7
    4   15   SE     -1
   15    4   SE      0
    4   15   ES      0
    4   15   EE    -11
    5   17   SS    -11
    5   17   SE     -3
    5   17   ES     -9
    5   17   EE     -6
    5   18   SS     -9
    5   18   SE      1
    5   18   ES      9
    5   18   EE      0
    5   20   SS      3
    5   20   SE      2
    5   20   ES     -1
    5   20   EE     -8
    6    7   SS      3
    6    7   SE     12
    6    7   ES    -12
    6    7   EE      2
    6    8   SS     -9
    6    8   SE     -8
    6    8   ES      2
    6    8   EE      6
    6   10   SS     10
    6   10   SE     11
    6   10   ES     10
    6   10   EE      2
    7   11   SS     -9
    7   11   SE      2
    7   11   ES      1
    7   11   EE     -6
    7   18   SS     11
    7   18   SE     -2
    7   18   ES    -12
    7   18   EE      1
    8   14   SS     12
    8   14   SE     -3
    8   14   ES     -7
    8   14   EE     10
    8   17   SS      2
    8   17   SE     -7
    8   17   ES      6
    8   17   EE     11
    8   21   SS      7
    8   21   SE    -12
    8   21   ES     10
    8   21   EE     -3
    9   13   SS     -6
    9   13   SE      4
    9   13   ES      5
    9   13   EE      8
   10   13   SS     -9
   10   13   SE      3
   10   13   ES     11
   10   13   EE      1
   10   14   SS      2
   10   14   SE      0
   10   14   ES     -8
   10   14   EE     -7
   11   14   SS      2
   11   14   SE    -11
   11   14   ES     -8
   11   14   EE     11
   12   17   SS     -1
   12   17   SE     -3
   12   17   ES     -5
   12   17   EE    -10
   12   20   SS      0
   12   20   SE      8
   12   20   ES     -5
   12   20   EE      6
   12   21   SS    -10
   12   21   SE     -2
   12   21   ES      4
   12   21   EE     -3
   13   15   SS      1
   13   15   SE     -4
   13   15   ES      3
   13   15   EE     -8
   13   20   SS     -2
   13   20   SE      1
   13   20   ES    -11
   13   20   EE     -3
   14   19   SS      0
   14   19   SE      2
   14   19   ES      4
   14   19   EE     -7
   15   18   SS      8
   15   18   SE    -11
   15   18   ES      9
   15   18   EE     -6
   16   19   SS      1
   16   19   SE      7
   16   19   ES    -12
   16   19   EE      0
   17   19   SS     10
   17   19   SE     -9
   17   19   ES     -2
   17   19   EE     10
   18   21   SS     10
   18   21   SE     -1
   18   21   ES    -11
   18   21   EE      9
   19   22   SS     -7
   19   22   SE      0
   19   22   ES    -10
   19   22   EE     -5
   20   22   SS     -4
   20   22   SE    -12
   20   22   ES     10
   20   22   EE      7
   21   22   SS      3
   21   22   SE     -5
   21   22   ES    -10
   21   22   EE     -8
************************************************************************
